MARKOV
87
2 2 2 2 2 2 2 2 2 2 2 2 2 2 2 2 2 2 2 2 2 2 2 2 2 2 2 2 2 2 2 2 2 2 2 2 2 2 2 2 2 2 2 2 2 2 2 2 2 2 2 2 2 2 2 2 2 2 2 2 2 2 2 2 2 2 2 2 2 2 2 2 2 2 2 2 2 2 2 2 2 2 2 2 2 2 10

87
3 5 40 54
3 25 41 48
3 1 6 45
3 6 32 40
3 33 44 50
3 5 21 44
3 9 49 53
3 0 31 48
3 14 17 35
3 34 56 59
3 8 22 46
3 41 53 55
3 7 8 23
3 2 4 33
3 25 41 46
3 20 23 25
3 12 14 54
3 25 45 58
3 10 47 56
3 19 39 42
3 27 42 54
3 1 26 50
3 2 47 57
3 5 40 51
3 20 34 49
3 13 37 41
3 17 36 58
3 25 29 49
3 0 30 38
3 43 49 52
3 16 29 44
3 18 27 59
3 0 43 46
3 3 9 54
3 25 28 52
3 5 18 32
3 7 44 49
3 2 19 53
3 7 9 22
3 14 33 39
3 34 54 55
3 0 30 58
3 1 25 34
3 14 37 42
3 3 28 37
3 7 16 43
3 21 52 57
2 7 44
2 6 27
2 25 44
4 16 28 48 60
4 16 28 48 61
4 16 28 48 62
4 16 28 48 63
3 10 31 64
3 10 31 65
3 1 10 66
3 1 10 67
4 13 37 38 68
4 13 37 38 69
4 13 37 38 70
4 13 37 38 71
4 8 12 57 72
4 8 12 57 73
4 8 12 57 74
4 8 12 57 75
4 26 36 39 76
4 26 36 39 77
4 26 36 39 78
4 26 36 39 79
3 24 35 80
3 24 35 81
3 15 44 82
3 15 44 83
3 11 59 84
3 11 59 85
4 25 53 55 86
4 35 48 54 86
4 10 29 40 86
4 1 22 48 86
4 13 38 51 86
4 14 52 57 86
4 32 36 37 86
4 24 53 54 86
4 1 15 50 86
4 11 12 55 86
1 86

8 0.166381 0.491119 0.833619 0.508881 0.481927 0.67881 0.518073 0.32119
8 0.154564 0.911461 0.845436 0.0885393 0.350075 0.635904 0.649925 0.364096
8 0.598596 0.00142442 0.401404 0.998576 0.404114 0.512101 0.595886 0.487899
8 0.610454 0.590669 0.389546 0.409331 0.517552 0.254328 0.482448 0.745672
8 0.18811 0.81189 0.533369 0.466631 0.430522 0.569478 0.63333 0.36667
8 0.511451 0.189792 0.412727 0.387839 0.488549 0.810208 0.587273 0.612161
8 0.503479 0.496521 0.452743 0.547257 0.962767 0.0372332 0.537585 0.462415
8 0.660272 0.764656 0.339728 0.235344 0.692797 0.580287 0.307203 0.419713
8 0.460984 0.539016 0.6774 0.3226 0.826973 0.173027 0.732242 0.267758
8 0.52736 0.467108 0.47264 0.532892 0.928511 0.350938 0.0714887 0.649062
8 0.252996 0.371301 0.747004 0.628699 0.366404 0.393345 0.633596 0.606655
8 0.430348 0.569652 0.416281 0.583719 0.704191 0.295809 0.547145 0.452855
8 0.724334 0.42971 0.275666 0.57029 0.41536 0.694129 0.58464 0.305871
8 0.605088 0.821914 0.394912 0.178086 0.34518 0.466105 0.65482 0.533895
8 0.701415 0.298585 0.650247 0.349753 0.670141 0.329859 0.396008 0.603992
8 0.442804 0.569072 0.557196 0.430928 0.849209 0.528835 0.150791 0.471165
8 0.207606 0.538855 0.513732 0.62588 0.792394 0.461145 0.486268 0.37412
8 0.60023 0.542357 0.39977 0.457643 0.532047 0.665689 0.467953 0.334311
8 0.760591 0.989623 0.239409 0.0103767 0.583399 0.272164 0.416601 0.727836
8 0.494375 0.132828 0.505625 0.867172 0.767726 0.344163 0.232274 0.655837
8 0.442986 0.497705 0.557014 0.502295 0.49096 0.446414 0.50904 0.553586
8 0.416843 0.982804 0.583157 0.0171961 0.503604 0.37707 0.496396 0.62293
8 0.646745 0.41799 0.0521563 0.1292 0.353255 0.58201 0.947844 0.8708
8 0.891935 0.108065 0.381136 0.618864 0.351535 0.648465 0.924582 0.0754176
8 0.437626 0.521946 0.148227 0.56305 0.562374 0.478054 0.851773 0.43695
8 0.743669 0.0608472 0.265334 0.0367935 0.256331 0.939153 0.734666 0.963206
8 0.176129 0.552548 0.884826 0.512496 0.823871 0.447452 0.115174 0.487504
8 0.391851 0.607413 0.608149 0.392587 0.641906 0.39181 0.358094 0.60819
8 0.879078 0.34323 0.120922 0.65677 0.531703 0.332988 0.468297 0.667012
8 0.944066 0.0559342 0.841842 0.158158 0.519427 0.480573 0.904531 0.0954689
8 0.776031 0.609288 0.100276 0.805015 0.223969 0.390712 0.899724 0.194985
8 0.602632 0.397368 0.364658 0.635342 0.458024 0.541976 0.929059 0.0709413
8 0.764449 0.392147 0.476064 0.731182 0.235551 0.607853 0.523936 0.268818
8 0.684613 0.612152 0.582014 0.270196 0.315387 0.387848 0.417986 0.729804
8 0.480097 0.905092 0.519903 0.0949083 0.31773 0.85727 0.68227 0.14273
8 0.532033 0.750981 0.467967 0.249019 0.770501 0.897303 0.229499 0.102697
8 0.481403 0.518597 0.9447 0.0553003 0.33984 0.66016 0.137747 0.862253
8 0.646465 0.201676 0.353535 0.798324 0.577559 0.494703 0.422441 0.505297
8 0.550517 0.975263 0.449483 0.0247371 0.770129 0.449973 0.229871 0.550027
8 0.0129226 0.396271 0.987077 0.603729 0.413182 0.347354 0.586818 0.652646
8 0.814704 0.541467 0.185296 0.458533 0.0289808 0.413551 0.971019 0.586449
8 0.616332 0.383668 0.329326 0.670674 0.962264 0.0377357 0.220455 0.779545
8 0.771172 0.228828 0.256385 0.743615 0.190137 0.809863 0.607315 0.392685
8 0.948036 0.576652 0.163613 0.166715 0.0519638 0.423348 0.836387 0.833285
8 0.790257 0.209743 0.561159 0.438841 0.732006 0.267994 0.6731 0.3269
8 0.694692 0.305308 0.617855 0.382145 0.864712 0.135288 0.529085 0.470915
8 0.207056 0.455006 0.398785 0.946673 0.792944 0.544994 0.601215 0.0533271
4 0.283229 0.299456 0.716771 0.700544
4 0.522379 0.477621 0.115392 0.884608
4 0.352731 0.647269 0.259522 0.740478
16 1.0 0.0 0.0 1.0 1.0 1.0 1.0 1.0 1.0 1.0 1.0 1.0 1.0 1.0 1.0 1.0
16 1.0 1.0 1.0 1.0 1.0 0.0 0.0 1.0 1.0 1.0 1.0 1.0 1.0 1.0 1.0 1.0
16 1.0 1.0 1.0 1.0 1.0 1.0 1.0 1.0 1.0 0.0 0.0 1.0 1.0 1.0 1.0 1.0
16 1.0 1.0 1.0 1.0 1.0 1.0 1.0 1.0 1.0 1.0 1.0 1.0 1.0 0.0 0.0 1.0
8 1.0 0.0 1.0 1.0 0.0 1.0 1.0 1.0
8 1.0 1.0 1.0 0.0 1.0 1.0 0.0 1.0
8 1.0 0.0 1.0 1.0 0.0 1.0 1.0 1.0
8 1.0 1.0 1.0 0.0 1.0 1.0 0.0 1.0
16 1.0 0.0 0.0 1.0 1.0 1.0 1.0 1.0 1.0 1.0 1.0 1.0 1.0 1.0 1.0 1.0
16 1.0 1.0 1.0 1.0 1.0 0.0 0.0 1.0 1.0 1.0 1.0 1.0 1.0 1.0 1.0 1.0
16 1.0 1.0 1.0 1.0 1.0 1.0 1.0 1.0 1.0 0.0 0.0 1.0 1.0 1.0 1.0 1.0
16 1.0 1.0 1.0 1.0 1.0 1.0 1.0 1.0 1.0 1.0 1.0 1.0 1.0 0.0 0.0 1.0
16 1.0 0.0 0.0 1.0 1.0 1.0 1.0 1.0 1.0 1.0 1.0 1.0 1.0 1.0 1.0 1.0
16 1.0 1.0 1.0 1.0 1.0 0.0 0.0 1.0 1.0 1.0 1.0 1.0 1.0 1.0 1.0 1.0
16 1.0 1.0 1.0 1.0 1.0 1.0 1.0 1.0 1.0 0.0 0.0 1.0 1.0 1.0 1.0 1.0
16 1.0 1.0 1.0 1.0 1.0 1.0 1.0 1.0 1.0 1.0 1.0 1.0 1.0 0.0 0.0 1.0
16 1.0 0.0 1.0 1.0 0.0 1.0 1.0 1.0 1.0 1.0 1.0 1.0 1.0 1.0 1.0 1.0
16 1.0 1.0 1.0 0.0 1.0 1.0 0.0 1.0 1.0 1.0 1.0 1.0 1.0 1.0 1.0 1.0
16 1.0 1.0 1.0 1.0 1.0 1.0 1.0 1.0 1.0 0.0 1.0 1.0 0.0 1.0 1.0 1.0
16 1.0 1.0 1.0 1.0 1.0 1.0 1.0 1.0 1.0 1.0 1.0 0.0 1.0 1.0 0.0 1.0
8 1.0 0.0 1.0 1.0 0.0 1.0 1.0 1.0
8 1.0 1.0 1.0 0.0 1.0 1.0 0.0 1.0
8 1.0 0.0 1.0 1.0 0.0 1.0 1.0 1.0
8 1.0 1.0 1.0 0.0 1.0 1.0 0.0 1.0
8 1.0 0.0 1.0 1.0 0.0 1.0 1.0 1.0
8 1.0 1.0 1.0 0.0 1.0 1.0 0.0 1.0
80 91.0 1.0 1.0 1.0 1.0 1.0 1.0 1.0 1.0 1.0 22.0 1.0 1.0 1.0 1.0 1.0 1.0 1.0 1.0 1.0 17.0 1.0 1.0 1.0 1.0 1.0 1.0 1.0 1.0 1.0 86.0 1.0 1.0 1.0 1.0 1.0 1.0 1.0 1.0 1.0 15.0 1.0 1.0 1.0 1.0 1.0 1.0 1.0 1.0 1.0 82.0 1.0 1.0 1.0 1.0 1.0 1.0 1.0 1.0 1.0 40.0 1.0 1.0 1.0 1.0 1.0 1.0 1.0 1.0 1.0 35.0 1.0 1.0 1.0 1.0 1.0 1.0 1.0 1.0 1.0
80 1.0 91.0 1.0 1.0 1.0 1.0 1.0 1.0 1.0 1.0 1.0 74.0 1.0 1.0 1.0 1.0 1.0 1.0 1.0 1.0 1.0 27.0 1.0 1.0 1.0 1.0 1.0 1.0 1.0 1.0 1.0 40.0 1.0 1.0 1.0 1.0 1.0 1.0 1.0 1.0 1.0 38.0 1.0 1.0 1.0 1.0 1.0 1.0 1.0 1.0 1.0 65.0 1.0 1.0 1.0 1.0 1.0 1.0 1.0 1.0 1.0 68.0 1.0 1.0 1.0 1.0 1.0 1.0 1.0 1.0 1.0 83.0 1.0 1.0 1.0 1.0 1.0 1.0 1.0 1.0
80 1.0 1.0 34.0 1.0 1.0 1.0 1.0 1.0 1.0 1.0 1.0 1.0 1.0 1.0 1.0 1.0 1.0 1.0 1.0 1.0 1.0 1.0 58.0 1.0 1.0 1.0 1.0 1.0 1.0 1.0 1.0 1.0 94.0 1.0 1.0 1.0 1.0 1.0 1.0 1.0 1.0 1.0 15.0 1.0 1.0 1.0 1.0 1.0 1.0 1.0 1.0 1.0 49.0 1.0 1.0 1.0 1.0 1.0 1.0 1.0 1.0 1.0 76.0 1.0 1.0 1.0 1.0 1.0 1.0 1.0 1.0 1.0 93.0 1.0 1.0 1.0 1.0 1.0 1.0 1.0
80 1.0 1.0 1.0 77.0 1.0 1.0 1.0 1.0 1.0 1.0 1.0 1.0 1.0 43.0 1.0 1.0 1.0 1.0 1.0 1.0 1.0 1.0 1.0 93.0 1.0 1.0 1.0 1.0 1.0 1.0 1.0 1.0 1.0 53.0 1.0 1.0 1.0 1.0 1.0 1.0 1.0 1.0 1.0 58.0 1.0 1.0 1.0 1.0 1.0 1.0 1.0 1.0 1.0 74.0 1.0 1.0 1.0 1.0 1.0 1.0 1.0 1.0 1.0 45.0 1.0 1.0 1.0 1.0 1.0 1.0 1.0 1.0 1.0 10.0 1.0 1.0 1.0 1.0 1.0 1.0
80 1.0 1.0 1.0 1.0 57.0 1.0 1.0 1.0 1.0 1.0 1.0 1.0 1.0 1.0 7.0 1.0 1.0 1.0 1.0 1.0 1.0 1.0 1.0 1.0 82.0 1.0 1.0 1.0 1.0 1.0 1.0 1.0 1.0 1.0 79.0 1.0 1.0 1.0 1.0 1.0 1.0 1.0 1.0 1.0 24.0 1.0 1.0 1.0 1.0 1.0 1.0 1.0 1.0 1.0 55.0 1.0 1.0 1.0 1.0 1.0 1.0 1.0 1.0 1.0 29.0 1.0 1.0 1.0 1.0 1.0 1.0 1.0 1.0 1.0 48.0 1.0 1.0 1.0 1.0 1.0
80 1.0 1.0 1.0 1.0 1.0 69.0 1.0 1.0 1.0 1.0 1.0 1.0 1.0 1.0 1.0 81.0 1.0 1.0 1.0 1.0 1.0 1.0 1.0 1.0 1.0 39.0 1.0 1.0 1.0 1.0 1.0 1.0 1.0 1.0 1.0 51.0 1.0 1.0 1.0 1.0 1.0 1.0 1.0 1.0 1.0 45.0 1.0 1.0 1.0 1.0 1.0 1.0 1.0 1.0 1.0 57.0 1.0 1.0 1.0 1.0 1.0 1.0 1.0 1.0 1.0 46.0 1.0 1.0 1.0 1.0 1.0 1.0 1.0 1.0 1.0 42.0 1.0 1.0 1.0 1.0
80 1.0 1.0 1.0 1.0 1.0 1.0 72.0 1.0 1.0 1.0 1.0 1.0 1.0 1.0 1.0 1.0 23.0 1.0 1.0 1.0 1.0 1.0 1.0 1.0 1.0 1.0 51.0 1.0 1.0 1.0 1.0 1.0 1.0 1.0 1.0 1.0 67.0 1.0 1.0 1.0 1.0 1.0 1.0 1.0 1.0 1.0 2.0 1.0 1.0 1.0 1.0 1.0 1.0 1.0 1.0 1.0 37.0 1.0 1.0 1.0 1.0 1.0 1.0 1.0 1.0 1.0 7.0 1.0 1.0 1.0 1.0 1.0 1.0 1.0 1.0 1.0 40.0 1.0 1.0 1.0
80 1.0 1.0 1.0 1.0 1.0 1.0 1.0 35.0 1.0 1.0 1.0 1.0 1.0 1.0 1.0 1.0 1.0 83.0 1.0 1.0 1.0 1.0 1.0 1.0 1.0 1.0 1.0 95.0 1.0 1.0 1.0 1.0 1.0 1.0 1.0 1.0 1.0 29.0 1.0 1.0 1.0 1.0 1.0 1.0 1.0 1.0 1.0 10.0 1.0 1.0 1.0 1.0 1.0 1.0 1.0 1.0 1.0 50.0 1.0 1.0 1.0 1.0 1.0 1.0 1.0 1.0 1.0 56.0 1.0 1.0 1.0 1.0 1.0 1.0 1.0 1.0 1.0 36.0 1.0 1.0
80 1.0 1.0 1.0 1.0 1.0 1.0 1.0 1.0 80.0 1.0 1.0 1.0 1.0 1.0 1.0 1.0 1.0 1.0 16.0 1.0 1.0 1.0 1.0 1.0 1.0 1.0 1.0 1.0 51.0 1.0 1.0 1.0 1.0 1.0 1.0 1.0 1.0 1.0 43.0 1.0 1.0 1.0 1.0 1.0 1.0 1.0 1.0 1.0 76.0 1.0 1.0 1.0 1.0 1.0 1.0 1.0 1.0 1.0 43.0 1.0 1.0 1.0 1.0 1.0 1.0 1.0 1.0 1.0 6.0 1.0 1.0 1.0 1.0 1.0 1.0 1.0 1.0 1.0 85.0 1.0
80 1.0 1.0 1.0 1.0 1.0 1.0 1.0 1.0 1.0 77.0 1.0 1.0 1.0 1.0 1.0 1.0 1.0 1.0 1.0 35.0 1.0 1.0 1.0 1.0 1.0 1.0 1.0 1.0 1.0 50.0 1.0 1.0 1.0 1.0 1.0 1.0 1.0 1.0 1.0 22.0 1.0 1.0 1.0 1.0 1.0 1.0 1.0 1.0 1.0 33.0 1.0 1.0 1.0 1.0 1.0 1.0 1.0 1.0 1.0 73.0 1.0 1.0 1.0 1.0 1.0 1.0 1.0 1.0 1.0 7.0 1.0 1.0 1.0 1.0 1.0 1.0 1.0 1.0 1.0 97.0
10 1.0 1.0 1.0 1.0 1.0 1.0 1.0 1.0 1.0 1.0
